<?xml version = "1.0" standalone="yes"?>
<!-- This file has been generated by DOcplex version 2.23.222  -->
<CPLEXSolution version="1.0">
 <header
   problemName="CVRP"
   objectiveValue="10370.8"
  />
 <variables>
  <variable name="x_0_1" index="0" value="1.00000"/>
  <variable name="x_0_5" index="4" value="1.00000"/>
  <variable name="x_0_6" index="5" value="1.00000"/>
  <variable name="x_0_11" index="10" value="1.00000"/>
  <variable name="x_0_12" index="11" value="1.00000"/>
  <variable name="x_0_13" index="12" value="1.00000"/>
  <variable name="x_0_14" index="13" value="1.00000"/>
  <variable name="x_0_15" index="14" value="1.00000"/>
  <variable name="x_0_18" index="17" value="1.00000"/>
  <variable name="x_0_19" index="18" value="1.00000"/>
  <variable name="x_1_0" index="20" value="1.00000"/>
  <variable name="x_2_0" index="40" value="1.00000"/>
  <variable name="x_3_0" index="60" value="1.00000"/>
  <variable name="x_4_2" index="82" value="1.00000"/>
  <variable name="x_5_0" index="100" value="1.00000"/>
  <variable name="x_6_8" index="127" value="1.00000"/>
  <variable name="x_7_3" index="143" value="1.00000"/>
  <variable name="x_8_0" index="160" value="1.00000"/>
  <variable name="x_9_16" index="195" value="1.00000"/>
  <variable name="x_10_0" index="200" value="1.00000"/>
  <variable name="x_11_4" index="224" value="1.00000"/>
  <variable name="x_12_7" index="247" value="1.00000"/>
  <variable name="x_13_0" index="260" value="1.00000"/>
  <variable name="x_14_10" index="290" value="1.00000"/>
  <variable name="x_15_20" index="319" value="1.00000"/>
  <variable name="x_16_17" index="336" value="1.00000"/>
  <variable name="x_17_0" index="340" value="1.00000"/>
  <variable name="x_18_0" index="360" value="1.00000"/>
  <variable name="x_19_9" index="389" value="1.00000"/>
  <variable name="x_20_0" index="400" value="1.00000"/>
  <variable name="u_1" index="420" value="40.00000"/>
  <variable name="u_2" index="421" value="44.00000"/>
  <variable name="u_3" index="422" value="44.00000"/>
  <variable name="u_4" index="423" value="38.00000"/>
  <variable name="u_5" index="424" value="26.00000"/>
  <variable name="u_6" index="425" value="11.00000"/>
  <variable name="u_7" index="426" value="21.00000"/>
  <variable name="u_8" index="427" value="43.00000"/>
  <variable name="u_9" index="428" value="22.00000"/>
  <variable name="u_10" index="429" value="44.00000"/>
  <variable name="u_11" index="430" value="24.00000"/>
  <variable name="u_12" index="431" value="6.00000"/>
  <variable name="u_13" index="432" value="44.00000"/>
  <variable name="u_14" index="433" value="24.00000"/>
  <variable name="u_15" index="434" value="25.00000"/>
  <variable name="u_16" index="435" value="27.00000"/>
  <variable name="u_17" index="436" value="42.00000"/>
  <variable name="u_18" index="437" value="29.00000"/>
  <variable name="u_19" index="438" value="10.00000"/>
  <variable name="u_20" index="439" value="43.00000"/>
 </variables>
</CPLEXSolution>
